units              real
atom_style         full
timestep	   0.5

pair_style         lj/charmm/coul/long 8 12 
bond_style         harmonic
angle_style        charmm
dihedral_style     charmm
improper_style     harmonic
kspace_style       pppm 1.0e-6

pair_modify        mix arithmetic
special_bonds      charmm
neighbor           2.0 bin
neigh_modify       every 1 delay 0 check yes
