variable  rand equal round(random(0,1e7,452345))
variable layer index 17

variable temp index 500000 450000 405000 364500 328050 295245 265720 239148 215233 193709 174338 156904 141213 127091 114381 102942 92647 83382 75043 67538 60784 54705 49234 44310 39879 35891 32301 29070 26163 23546 21191 19071 17163 15446 13901 12510 11259 10133 9119 8207 7386 6647 5982 5383 4844 4359 3923 3530 3177 2859 2573 2315 2083 1874 1686 1517 1365 1228 1105 994 894 804 723 650 585 526 473 425 382 343 308 277 249 224 201 180 162 145 130 117 105 94 84 75 67 60 54 48 43 38 34 30 27 24 21 18 16 14 12 10 9 8 7 6 5 4 3 2 1

variable type string tet_full

include settings.lmp

read_data 001-dbt_3x3_${layer}L_fa_${type}_init.data

include ff_formic_acid_fe304.param

dump dmp all custom 10000 swap_${layer}L_${type}.lammpstrj id mol type q x y z
dump_modify dmp sort id

group fe type 7 6

compute coord fe coord/atom cutoff 2.0
dump coord fe custom 1 fe_${layer}L.coord id type c_coord
dump_modify coord sort id
run 0
variable fet atom c_coord==4
group fet variable fet
group feo subtract fe fet
undump coord

variable nfeo equal count(feo)
variable nsteps equal round((${nfeo}*${nfeo})/4)
variable nsteps_initial equal ${nfeo}*${nfeo}

set group all mol 0
set group fet mol 1
set group feo mol 2

variable fet3 atom "gmask(fet) && q == 1.575"
group fet3 dynamic fe var fet3 every 100
variable rfet3 equal count(fet3)/count(fet)

variable feo3 atom "gmask(feo) && q == 1.575"
group feo3 dynamic fe var feo3 every 100
variable rfeo3 equal count(feo3)/count(feo)

variable cnum equal 109

# Initial mc to remove any residuals
fix  swp feo atom/swap 1 1 ${rand} 10000 ke no types 6 7
thermo 1000
thermo_style custom step pe f_swp[1] f_swp[2] v_rfet3 v_rfeo3
run ${nsteps_initial}
unfix swp

thermo_style custom step temp pe
write_data 001-dbt_3x3_${layer}L_fa_${type}_rand.data

variable top_immobile equal bound(all,zmax)
variable top_immobile equal ${top_immobile}-10

variable bottom_immobile equal bound(all,zmin)
variable bottom_immobile equal ${bottom_immobile}+10

region top_immobile block INF INF INF INF ${top_immobile} INF side in units box
region bottom_immobile block INF INF INF INF INF ${bottom_immobile} side in units box

group top_immobile region top_immobile
group bottom_immobile region bottom_immobile

group ho type 9 10
group fa type 1 2 3 4 5 

# Minimize O-H bond
group immobile_1 type 1 2 3 6 7 8

group top_ho intersect top_immobile ho 
group bottom_ho intersect bottom_immobile ho 

group top_fa intersect top_immobile fa 
group bottom_fa intersect bottom_immobile fa 

group immo_top_fa subtract all top_fa
group immo_bottom_fa subtract all bottom_fa

group immo_top_ho subtract all top_ho
group immo_bottom_ho subtract all bottom_ho

label minimize_temp

  variable ftemp equal v_temp
  
  # Minimize top formate
  fix freeze immo_top_fa setforce 0.0 0.0 0.0
  minimize 1.0e-6 1.0e-9 1000 10000
  min_modify integrator eulerexplicit tmax 10.0 tmin 0.0 delaystep 5 &
          dtgrow 1.1 dtshrink 0.5 alpha0 0.1 alphashrink 0.99 &
          vdfmax 100000 halfstepback no initialdelay no
  unfix freeze

  # Minimize top ho
  fix freeze immo_top_ho setforce 0.0 0.0 0.0
  minimize 1.0e-6 1.0e-9 1000 10000
  min_modify integrator eulerexplicit tmax 10.0 tmin 0.0 delaystep 5 &
          dtgrow 1.1 dtshrink 0.5 alpha0 0.1 alphashrink 0.99 &
          vdfmax 100000 halfstepback no initialdelay no  
  unfix freeze

  # Minimize bottom formate
  fix freeze immo_bottom_fa setforce 0.0 0.0 0.0
  minimize 1.0e-6 1.0e-9 1000 10000
  min_modify integrator eulerexplicit tmax 10.0 tmin 0.0 delaystep 5 &
          dtgrow 1.1 dtshrink 0.5 alpha0 0.1 alphashrink 0.99 &
          vdfmax 100000 halfstepback no initialdelay no
  unfix freeze

  # Minimize bottom ho
  fix freeze immo_bottom_ho setforce 0.0 0.0 0.0
  minimize 1.0e-6 1.0e-9 1000 10000
  min_modify integrator eulerexplicit tmax 10.0 tmin 0.0 delaystep 5 &
          dtgrow 1.1 dtshrink 0.5 alpha0 0.1 alphashrink 0.99 &
          vdfmax 100000 halfstepback no initialdelay no
  unfix freeze

  # Electrostatic relaxation
  fix  swp feo atom/swap 1 1 ${rand} ${temp} ke no types 6 7
  thermo 1000
  thermo_style custom step v_ftemp v_cnum pe f_swp[1] f_swp[2] v_rfet3 v_rfeo3
  run ${nsteps}
 
  variable cnum equal (${cnum}-1)

  unfix swp
  thermo_style custom step temp pe
  write_data  001-dbt_3x3_${layer}L_fa_${type}_${cnum}_${temp}K.data

next temp
jump SELF minimize_temp

write_data  001-dbt_3x3_${layer}L_fa_${type}_qeq.data

